(declare-const term_to_project_onto0 Real)
(declare-const term_to_project_onto2 Real)
(declare-const term_to_project_onto Real)
(declare-const term_to_project_onto1 Real)
(assert (exists
         ((uninterp?1 Int) (uninterp?2 Int) (uninterp?3 Int) (uninterp?4 Int)
            (|z'?5| Int) (|y'?6| Int) (|x'?7| Int) (|n'?8| Int) (a?9 Int)
            (x?10 Int) (y?11 Int) (n?12 Int) (z?13 Int))
         (and (<= (- x?10) 0) (<= (+ (- y?11) 1) 0) (<= (- n?12) 0)
                (<= (+ (- z?13) 1) 0) (= (+ (- z?13) (* 6 n?12) 6) 0)
                (= (+ z?13 (* -6 n?12) -6) 0)
                (= (+ (* -3 uninterp?4) (* -3 n?12) y?11 -1) 0)
                (= (+ (- uninterp?3) x?10) 0)
                (= (+ (* 2 z?13) uninterp?2 (* -12 y?11) (* -18 x?10) -6) 0)
                (= (+ uninterp?1 (* -6 z?13) (* -12 y?11) 12) 0)
                (<= (+ (- a?9) n?12) 0) (= (+ |z'?5| (- z?13) -6) 0)
                (= (+ |y'?6| (- z?13) (- y?11)) 0)
                (= (+ |x'?7| (- y?11) (- x?10)) 0)
                (= (+ |n'?8| (- n?12) -1) 0) (<= 36 uninterp?1)
                (<= (* 6 z?13) uninterp?1) (<= (* 6 z?13) uninterp?1)
                (<= 6 uninterp?2) (<= (* 6 y?11) uninterp?2)
                (<= z?13 uninterp?2) (<= 0 uninterp?3) (<= 0 uninterp?4)
                (= 0 (+ -18 (* 72 uninterp?4) (* 54 uninterp?3)
                          (* -3 uninterp?2) uninterp?1))
                (= term_to_project_onto2 (+ |n'?8| (- n?12)))
                (= term_to_project_onto1 (+ |x'?7| (- x?10)))
                (= term_to_project_onto0 (+ |y'?6| (- y?11)))
                (= term_to_project_onto (+ |z'?5| (- z?13))))))
(check-sat)
